AS/r1.AS.lp
Min
A0_0_0 + A0_0_1 + A0_1_0 + A0_1_1 + A0_2_0 + A0_2_1 + A0_3_0 + A0_3_1 

Subject To
x0_0 + x0_1 + x0_2 + x0_3 + x0_4 + x0_5 + x0_6 + x0_7 + x0_8 + x0_9 + x0_10 + x0_11 + x0_12 + x0_13 + x0_14 + x0_15 + x0_16 + x0_17 + x0_18 + x0_19 + x0_20 + x0_21 + x0_22 + x0_23 + x0_24 + x0_25 + x0_26 + x0_27 + x0_28 + x0_29 + x0_30 + x0_31 + x0_32 + x0_33 + x0_34 + x0_35 + x0_36 + x0_37 + x0_38 + x0_39 + x0_40 + x0_41 + x0_42 + x0_43 + x0_44 + x0_45 + x0_46 + x0_47 + x0_48 + x0_49 + x0_50 + x0_51 + x0_52 + x0_53 + x0_54 + x0_55 + x0_56 + x0_57 + x0_58 + x0_59 + x0_60 + x0_61 + x0_62 + x0_63 >= 1
x0_0 + x0_1 + x0_2 + x0_3 - A0_0_0 >= 0
A0_0_0 - x0_0 >= 0
A0_0_0 - x0_1 >= 0
A0_0_0 - x0_2 >= 0
A0_0_0 - x0_3 >= 0
4 x0_0 + 4 x0_1 + 4 x0_2 + 4 x0_3 - y0_0 - y0_1 - y0_2 - y0_3 >= 0
4 y0_0 + 4 y0_1 + 4 y0_2 + 4 y0_3 - x0_0 - x0_1 - x0_2 - x0_3 >= 0
- 1 x0_0 + 1 y0_0 - 1 x0_1 - 2 y0_1 - 2 x0_2 - 2 y0_2 + 1 x0_3 - 1 y0_3 >= - 7
- 1 x0_0 - 2 y0_0 - 1 x0_1 + 2 y0_1 - 1 x0_2 - 2 y0_2 + 1 x0_3 + 1 y0_3 >= - 5
+ 2 x0_0 - 1 y0_0 - 2 x0_1 - 2 y0_1 - 2 x0_2 + 1 y0_2 - 1 x0_3 - 2 y0_3 >= - 8
- 1 x0_0 - 2 y0_0 + 1 x0_1 + 1 y0_1 - 2 x0_2 + 1 y0_2 - 2 x0_3 - 1 y0_3 >= - 6
- 1 x0_0 - 2 y0_0 - 1 x0_1 - 2 y0_1 - 1 x0_2 + 2 y0_2 + 2 x0_3 + 1 y0_3 >= - 5
- 1 x0_0 + 0 y0_0 - 1 x0_1 + 1 y0_1 + 0 x0_2 + 1 y0_2 + 0 x0_3 - 1 y0_3 >= - 2
- 2 x0_0 + 1 y0_0 - 2 x0_1 - 1 y0_1 + 2 x0_2 + 1 y0_2 - 1 x0_3 - 1 y0_3 >= - 5
+ 3 x0_0 - 2 y0_0 + 4 x0_1 + 1 y0_1 + 1 x0_2 + 1 y0_2 + 3 x0_3 - 2 y0_3 >= 0
+ 0 x0_0 + 2 y0_0 + 2 x0_1 + 2 y0_1 + 1 x0_2 - 1 y0_2 - 1 x0_3 - 2 y0_3 >= - 2
+ 2 x0_0 - 1 y0_0 + 2 x0_1 - 2 y0_1 - 2 x0_2 - 1 y0_2 - 1 x0_3 + 2 y0_3 >= - 5
+ 0 x0_0 + 1 y0_0 + 1 x0_1 + 1 y0_1 + 1 x0_2 - 1 y0_2 + 1 x0_3 + 0 y0_3 >= 0
- 2 x0_0 - 2 y0_0 + 3 x0_1 - 3 y0_1 + 3 x0_2 - 1 y0_2 - 1 x0_3 - 1 y0_3 >= - 7
- 1 x0_0 + 2 y0_0 + 1 x0_1 - 3 y0_1 + 2 x0_2 + 3 y0_2 + 3 x0_3 - 1 y0_3 >= - 2
+ 2 x0_0 - 1 y0_0 - 1 x0_1 + 1 y0_1 + 0 x0_2 + 2 y0_2 + 1 x0_3 + 2 y0_3 >= 0
- 2 x0_0 + 7 y0_0 - 1 x0_1 + 4 y0_1 - 1 x0_2 + 5 y0_2 - 3 x0_3 + 6 y0_3 >= 0
+ 2 x0_0 - 3 y0_0 + 1 x0_1 - 2 y0_1 + 3 x0_2 - 3 y0_2 + 1 x0_3 - 3 y0_3 >= - 7
- 4 x0_0 + 3 y0_0 + 2 x0_1 + 1 y0_1 + 1 x0_2 + 5 y0_2 - 1 x0_3 + 4 y0_3 >= 0
+ 3 x0_0 + 3 y0_0 + 4 x0_1 + 1 y0_1 + 1 x0_2 + 3 y0_2 - 2 x0_3 - 2 y0_3 >= 0
+ 1 x0_0 - 1 y0_0 - 2 x0_1 - 1 y0_1 + 2 x0_2 - 2 y0_2 - 1 x0_3 + 1 y0_3 >= - 5
+ 4 x0_0 + 2 y0_0 - 1 x0_1 - 2 y0_1 + 3 x0_2 - 4 y0_2 + 1 x0_3 + 2 y0_3 >= - 3
+ 3 x0_0 + 1 y0_0 - 2 x0_1 + 4 y0_1 - 2 x0_2 + 1 y0_2 + 3 x0_3 + 3 y0_3 >= 0
- 3 x0_0 + 1 y0_0 + 1 x0_1 + 3 y0_1 - 4 x0_2 - 2 y0_2 - 4 x0_3 + 2 y0_3 >= - 9
- 3 x0_0 - 3 y0_0 + 1 x0_1 + 2 y0_1 - 3 x0_2 - 2 y0_2 + 1 x0_3 + 1 y0_3 >= - 8
+ 2 x0_0 - 1 y0_0 - 2 x0_1 + 1 y0_1 - 2 x0_2 - 2 y0_2 - 1 x0_3 - 1 y0_3 >= - 7
x0_4 + x0_5 + x0_6 + x0_7 - A0_0_1 >= 0
A0_0_1 - x0_4 >= 0
A0_0_1 - x0_5 >= 0
A0_0_1 - x0_6 >= 0
A0_0_1 - x0_7 >= 0
4 x0_4 + 4 x0_5 + 4 x0_6 + 4 x0_7 - y0_4 - y0_5 - y0_6 - y0_7 >= 0
4 y0_4 + 4 y0_5 + 4 y0_6 + 4 y0_7 - x0_4 - x0_5 - x0_6 - x0_7 >= 0
- 1 x0_4 + 1 y0_4 - 1 x0_5 - 2 y0_5 - 2 x0_6 - 2 y0_6 + 1 x0_7 - 1 y0_7 >= - 7
- 1 x0_4 - 2 y0_4 - 1 x0_5 + 2 y0_5 - 1 x0_6 - 2 y0_6 + 1 x0_7 + 1 y0_7 >= - 5
+ 2 x0_4 - 1 y0_4 - 2 x0_5 - 2 y0_5 - 2 x0_6 + 1 y0_6 - 1 x0_7 - 2 y0_7 >= - 8
- 1 x0_4 - 2 y0_4 + 1 x0_5 + 1 y0_5 - 2 x0_6 + 1 y0_6 - 2 x0_7 - 1 y0_7 >= - 6
- 1 x0_4 - 2 y0_4 - 1 x0_5 - 2 y0_5 - 1 x0_6 + 2 y0_6 + 2 x0_7 + 1 y0_7 >= - 5
- 1 x0_4 + 0 y0_4 - 1 x0_5 + 1 y0_5 + 0 x0_6 + 1 y0_6 + 0 x0_7 - 1 y0_7 >= - 2
- 2 x0_4 + 1 y0_4 - 2 x0_5 - 1 y0_5 + 2 x0_6 + 1 y0_6 - 1 x0_7 - 1 y0_7 >= - 5
+ 3 x0_4 - 2 y0_4 + 4 x0_5 + 1 y0_5 + 1 x0_6 + 1 y0_6 + 3 x0_7 - 2 y0_7 >= 0
+ 0 x0_4 + 2 y0_4 + 2 x0_5 + 2 y0_5 + 1 x0_6 - 1 y0_6 - 1 x0_7 - 2 y0_7 >= - 2
+ 2 x0_4 - 1 y0_4 + 2 x0_5 - 2 y0_5 - 2 x0_6 - 1 y0_6 - 1 x0_7 + 2 y0_7 >= - 5
+ 0 x0_4 + 1 y0_4 + 1 x0_5 + 1 y0_5 + 1 x0_6 - 1 y0_6 + 1 x0_7 + 0 y0_7 >= 0
- 2 x0_4 - 2 y0_4 + 3 x0_5 - 3 y0_5 + 3 x0_6 - 1 y0_6 - 1 x0_7 - 1 y0_7 >= - 7
- 1 x0_4 + 2 y0_4 + 1 x0_5 - 3 y0_5 + 2 x0_6 + 3 y0_6 + 3 x0_7 - 1 y0_7 >= - 2
+ 2 x0_4 - 1 y0_4 - 1 x0_5 + 1 y0_5 + 0 x0_6 + 2 y0_6 + 1 x0_7 + 2 y0_7 >= 0
- 2 x0_4 + 7 y0_4 - 1 x0_5 + 4 y0_5 - 1 x0_6 + 5 y0_6 - 3 x0_7 + 6 y0_7 >= 0
+ 2 x0_4 - 3 y0_4 + 1 x0_5 - 2 y0_5 + 3 x0_6 - 3 y0_6 + 1 x0_7 - 3 y0_7 >= - 7
- 4 x0_4 + 3 y0_4 + 2 x0_5 + 1 y0_5 + 1 x0_6 + 5 y0_6 - 1 x0_7 + 4 y0_7 >= 0
+ 3 x0_4 + 3 y0_4 + 4 x0_5 + 1 y0_5 + 1 x0_6 + 3 y0_6 - 2 x0_7 - 2 y0_7 >= 0
+ 1 x0_4 - 1 y0_4 - 2 x0_5 - 1 y0_5 + 2 x0_6 - 2 y0_6 - 1 x0_7 + 1 y0_7 >= - 5
+ 4 x0_4 + 2 y0_4 - 1 x0_5 - 2 y0_5 + 3 x0_6 - 4 y0_6 + 1 x0_7 + 2 y0_7 >= - 3
+ 3 x0_4 + 1 y0_4 - 2 x0_5 + 4 y0_5 - 2 x0_6 + 1 y0_6 + 3 x0_7 + 3 y0_7 >= 0
- 3 x0_4 + 1 y0_4 + 1 x0_5 + 3 y0_5 - 4 x0_6 - 2 y0_6 - 4 x0_7 + 2 y0_7 >= - 9
- 3 x0_4 - 3 y0_4 + 1 x0_5 + 2 y0_5 - 3 x0_6 - 2 y0_6 + 1 x0_7 + 1 y0_7 >= - 8
+ 2 x0_4 - 1 y0_4 - 2 x0_5 + 1 y0_5 - 2 x0_6 - 2 y0_6 - 1 x0_7 - 1 y0_7 >= - 7
x0_11 + y0_2 + x0_67 - 2 d0_0_1 = 0
x0_10 + y0_1 + x0_66 - 2 d0_0_2 = 0
x0_9 + y0_0 + x0_65 - 2 d0_0_3 = 0
x0_8 + y0_7 + x0_64 - 2 d0_0_4 = 0
x0_15 + y0_6 + x0_71 - 2 d0_0_5 = 0
x0_14 + y0_5 + x0_70 - 2 d0_0_6 = 0
x0_13 + y0_4 + x0_69 - 2 d0_0_7 = 0
x0_12 + y0_3 + x0_68 - 2 d0_0_8 = 0
x0_16 + x0_17 + x0_18 + x0_19 - A0_1_0 >= 0
A0_1_0 - x0_16 >= 0
A0_1_0 - x0_17 >= 0
A0_1_0 - x0_18 >= 0
A0_1_0 - x0_19 >= 0
4 x0_16 + 4 x0_17 + 4 x0_18 + 4 x0_19 - y0_16 - y0_17 - y0_18 - y0_19 >= 0
4 y0_16 + 4 y0_17 + 4 y0_18 + 4 y0_19 - x0_16 - x0_17 - x0_18 - x0_19 >= 0
- 1 x0_16 + 1 y0_16 - 1 x0_17 - 2 y0_17 - 2 x0_18 - 2 y0_18 + 1 x0_19 - 1 y0_19 >= - 7
- 1 x0_16 - 2 y0_16 - 1 x0_17 + 2 y0_17 - 1 x0_18 - 2 y0_18 + 1 x0_19 + 1 y0_19 >= - 5
+ 2 x0_16 - 1 y0_16 - 2 x0_17 - 2 y0_17 - 2 x0_18 + 1 y0_18 - 1 x0_19 - 2 y0_19 >= - 8
- 1 x0_16 - 2 y0_16 + 1 x0_17 + 1 y0_17 - 2 x0_18 + 1 y0_18 - 2 x0_19 - 1 y0_19 >= - 6
- 1 x0_16 - 2 y0_16 - 1 x0_17 - 2 y0_17 - 1 x0_18 + 2 y0_18 + 2 x0_19 + 1 y0_19 >= - 5
- 1 x0_16 + 0 y0_16 - 1 x0_17 + 1 y0_17 + 0 x0_18 + 1 y0_18 + 0 x0_19 - 1 y0_19 >= - 2
- 2 x0_16 + 1 y0_16 - 2 x0_17 - 1 y0_17 + 2 x0_18 + 1 y0_18 - 1 x0_19 - 1 y0_19 >= - 5
+ 3 x0_16 - 2 y0_16 + 4 x0_17 + 1 y0_17 + 1 x0_18 + 1 y0_18 + 3 x0_19 - 2 y0_19 >= 0
+ 0 x0_16 + 2 y0_16 + 2 x0_17 + 2 y0_17 + 1 x0_18 - 1 y0_18 - 1 x0_19 - 2 y0_19 >= - 2
+ 2 x0_16 - 1 y0_16 + 2 x0_17 - 2 y0_17 - 2 x0_18 - 1 y0_18 - 1 x0_19 + 2 y0_19 >= - 5
+ 0 x0_16 + 1 y0_16 + 1 x0_17 + 1 y0_17 + 1 x0_18 - 1 y0_18 + 1 x0_19 + 0 y0_19 >= 0
- 2 x0_16 - 2 y0_16 + 3 x0_17 - 3 y0_17 + 3 x0_18 - 1 y0_18 - 1 x0_19 - 1 y0_19 >= - 7
- 1 x0_16 + 2 y0_16 + 1 x0_17 - 3 y0_17 + 2 x0_18 + 3 y0_18 + 3 x0_19 - 1 y0_19 >= - 2
+ 2 x0_16 - 1 y0_16 - 1 x0_17 + 1 y0_17 + 0 x0_18 + 2 y0_18 + 1 x0_19 + 2 y0_19 >= 0
- 2 x0_16 + 7 y0_16 - 1 x0_17 + 4 y0_17 - 1 x0_18 + 5 y0_18 - 3 x0_19 + 6 y0_19 >= 0
+ 2 x0_16 - 3 y0_16 + 1 x0_17 - 2 y0_17 + 3 x0_18 - 3 y0_18 + 1 x0_19 - 3 y0_19 >= - 7
- 4 x0_16 + 3 y0_16 + 2 x0_17 + 1 y0_17 + 1 x0_18 + 5 y0_18 - 1 x0_19 + 4 y0_19 >= 0
+ 3 x0_16 + 3 y0_16 + 4 x0_17 + 1 y0_17 + 1 x0_18 + 3 y0_18 - 2 x0_19 - 2 y0_19 >= 0
+ 1 x0_16 - 1 y0_16 - 2 x0_17 - 1 y0_17 + 2 x0_18 - 2 y0_18 - 1 x0_19 + 1 y0_19 >= - 5
+ 4 x0_16 + 2 y0_16 - 1 x0_17 - 2 y0_17 + 3 x0_18 - 4 y0_18 + 1 x0_19 + 2 y0_19 >= - 3
+ 3 x0_16 + 1 y0_16 - 2 x0_17 + 4 y0_17 - 2 x0_18 + 1 y0_18 + 3 x0_19 + 3 y0_19 >= 0
- 3 x0_16 + 1 y0_16 + 1 x0_17 + 3 y0_17 - 4 x0_18 - 2 y0_18 - 4 x0_19 + 2 y0_19 >= - 9
- 3 x0_16 - 3 y0_16 + 1 x0_17 + 2 y0_17 - 3 x0_18 - 2 y0_18 + 1 x0_19 + 1 y0_19 >= - 8
+ 2 x0_16 - 1 y0_16 - 2 x0_17 + 1 y0_17 - 2 x0_18 - 2 y0_18 - 1 x0_19 - 1 y0_19 >= - 7
x0_20 + x0_21 + x0_22 + x0_23 - A0_1_1 >= 0
A0_1_1 - x0_20 >= 0
A0_1_1 - x0_21 >= 0
A0_1_1 - x0_22 >= 0
A0_1_1 - x0_23 >= 0
4 x0_20 + 4 x0_21 + 4 x0_22 + 4 x0_23 - y0_20 - y0_21 - y0_22 - y0_23 >= 0
4 y0_20 + 4 y0_21 + 4 y0_22 + 4 y0_23 - x0_20 - x0_21 - x0_22 - x0_23 >= 0
- 1 x0_20 + 1 y0_20 - 1 x0_21 - 2 y0_21 - 2 x0_22 - 2 y0_22 + 1 x0_23 - 1 y0_23 >= - 7
- 1 x0_20 - 2 y0_20 - 1 x0_21 + 2 y0_21 - 1 x0_22 - 2 y0_22 + 1 x0_23 + 1 y0_23 >= - 5
+ 2 x0_20 - 1 y0_20 - 2 x0_21 - 2 y0_21 - 2 x0_22 + 1 y0_22 - 1 x0_23 - 2 y0_23 >= - 8
- 1 x0_20 - 2 y0_20 + 1 x0_21 + 1 y0_21 - 2 x0_22 + 1 y0_22 - 2 x0_23 - 1 y0_23 >= - 6
- 1 x0_20 - 2 y0_20 - 1 x0_21 - 2 y0_21 - 1 x0_22 + 2 y0_22 + 2 x0_23 + 1 y0_23 >= - 5
- 1 x0_20 + 0 y0_20 - 1 x0_21 + 1 y0_21 + 0 x0_22 + 1 y0_22 + 0 x0_23 - 1 y0_23 >= - 2
- 2 x0_20 + 1 y0_20 - 2 x0_21 - 1 y0_21 + 2 x0_22 + 1 y0_22 - 1 x0_23 - 1 y0_23 >= - 5
+ 3 x0_20 - 2 y0_20 + 4 x0_21 + 1 y0_21 + 1 x0_22 + 1 y0_22 + 3 x0_23 - 2 y0_23 >= 0
+ 0 x0_20 + 2 y0_20 + 2 x0_21 + 2 y0_21 + 1 x0_22 - 1 y0_22 - 1 x0_23 - 2 y0_23 >= - 2
+ 2 x0_20 - 1 y0_20 + 2 x0_21 - 2 y0_21 - 2 x0_22 - 1 y0_22 - 1 x0_23 + 2 y0_23 >= - 5
+ 0 x0_20 + 1 y0_20 + 1 x0_21 + 1 y0_21 + 1 x0_22 - 1 y0_22 + 1 x0_23 + 0 y0_23 >= 0
- 2 x0_20 - 2 y0_20 + 3 x0_21 - 3 y0_21 + 3 x0_22 - 1 y0_22 - 1 x0_23 - 1 y0_23 >= - 7
- 1 x0_20 + 2 y0_20 + 1 x0_21 - 3 y0_21 + 2 x0_22 + 3 y0_22 + 3 x0_23 - 1 y0_23 >= - 2
+ 2 x0_20 - 1 y0_20 - 1 x0_21 + 1 y0_21 + 0 x0_22 + 2 y0_22 + 1 x0_23 + 2 y0_23 >= 0
- 2 x0_20 + 7 y0_20 - 1 x0_21 + 4 y0_21 - 1 x0_22 + 5 y0_22 - 3 x0_23 + 6 y0_23 >= 0
+ 2 x0_20 - 3 y0_20 + 1 x0_21 - 2 y0_21 + 3 x0_22 - 3 y0_22 + 1 x0_23 - 3 y0_23 >= - 7
- 4 x0_20 + 3 y0_20 + 2 x0_21 + 1 y0_21 + 1 x0_22 + 5 y0_22 - 1 x0_23 + 4 y0_23 >= 0
+ 3 x0_20 + 3 y0_20 + 4 x0_21 + 1 y0_21 + 1 x0_22 + 3 y0_22 - 2 x0_23 - 2 y0_23 >= 0
+ 1 x0_20 - 1 y0_20 - 2 x0_21 - 1 y0_21 + 2 x0_22 - 2 y0_22 - 1 x0_23 + 1 y0_23 >= - 5
+ 4 x0_20 + 2 y0_20 - 1 x0_21 - 2 y0_21 + 3 x0_22 - 4 y0_22 + 1 x0_23 + 2 y0_23 >= - 3
+ 3 x0_20 + 1 y0_20 - 2 x0_21 + 4 y0_21 - 2 x0_22 + 1 y0_22 + 3 x0_23 + 3 y0_23 >= 0
- 3 x0_20 + 1 y0_20 + 1 x0_21 + 3 y0_21 - 4 x0_22 - 2 y0_22 - 4 x0_23 + 2 y0_23 >= - 9
- 3 x0_20 - 3 y0_20 + 1 x0_21 + 2 y0_21 - 3 x0_22 - 2 y0_22 + 1 x0_23 + 1 y0_23 >= - 8
+ 2 x0_20 - 1 y0_20 - 2 x0_21 + 1 y0_21 - 2 x0_22 - 2 y0_22 - 1 x0_23 - 1 y0_23 >= - 7
x0_27 + y0_18 + x0_75 - 2 d0_1_1 = 0
x0_26 + y0_17 + x0_74 - 2 d0_1_2 = 0
x0_25 + y0_16 + x0_73 - 2 d0_1_3 = 0
x0_24 + y0_23 + x0_72 - 2 d0_1_4 = 0
x0_31 + y0_22 + x0_79 - 2 d0_1_5 = 0
x0_30 + y0_21 + x0_78 - 2 d0_1_6 = 0
x0_29 + y0_20 + x0_77 - 2 d0_1_7 = 0
x0_28 + y0_19 + x0_76 - 2 d0_1_8 = 0
x0_32 + x0_33 + x0_34 + x0_35 - A0_2_0 >= 0
A0_2_0 - x0_32 >= 0
A0_2_0 - x0_33 >= 0
A0_2_0 - x0_34 >= 0
A0_2_0 - x0_35 >= 0
4 x0_32 + 4 x0_33 + 4 x0_34 + 4 x0_35 - y0_32 - y0_33 - y0_34 - y0_35 >= 0
4 y0_32 + 4 y0_33 + 4 y0_34 + 4 y0_35 - x0_32 - x0_33 - x0_34 - x0_35 >= 0
- 1 x0_32 + 1 y0_32 - 1 x0_33 - 2 y0_33 - 2 x0_34 - 2 y0_34 + 1 x0_35 - 1 y0_35 >= - 7
- 1 x0_32 - 2 y0_32 - 1 x0_33 + 2 y0_33 - 1 x0_34 - 2 y0_34 + 1 x0_35 + 1 y0_35 >= - 5
+ 2 x0_32 - 1 y0_32 - 2 x0_33 - 2 y0_33 - 2 x0_34 + 1 y0_34 - 1 x0_35 - 2 y0_35 >= - 8
- 1 x0_32 - 2 y0_32 + 1 x0_33 + 1 y0_33 - 2 x0_34 + 1 y0_34 - 2 x0_35 - 1 y0_35 >= - 6
- 1 x0_32 - 2 y0_32 - 1 x0_33 - 2 y0_33 - 1 x0_34 + 2 y0_34 + 2 x0_35 + 1 y0_35 >= - 5
- 1 x0_32 + 0 y0_32 - 1 x0_33 + 1 y0_33 + 0 x0_34 + 1 y0_34 + 0 x0_35 - 1 y0_35 >= - 2
- 2 x0_32 + 1 y0_32 - 2 x0_33 - 1 y0_33 + 2 x0_34 + 1 y0_34 - 1 x0_35 - 1 y0_35 >= - 5
+ 3 x0_32 - 2 y0_32 + 4 x0_33 + 1 y0_33 + 1 x0_34 + 1 y0_34 + 3 x0_35 - 2 y0_35 >= 0
+ 0 x0_32 + 2 y0_32 + 2 x0_33 + 2 y0_33 + 1 x0_34 - 1 y0_34 - 1 x0_35 - 2 y0_35 >= - 2
+ 2 x0_32 - 1 y0_32 + 2 x0_33 - 2 y0_33 - 2 x0_34 - 1 y0_34 - 1 x0_35 + 2 y0_35 >= - 5
+ 0 x0_32 + 1 y0_32 + 1 x0_33 + 1 y0_33 + 1 x0_34 - 1 y0_34 + 1 x0_35 + 0 y0_35 >= 0
- 2 x0_32 - 2 y0_32 + 3 x0_33 - 3 y0_33 + 3 x0_34 - 1 y0_34 - 1 x0_35 - 1 y0_35 >= - 7
- 1 x0_32 + 2 y0_32 + 1 x0_33 - 3 y0_33 + 2 x0_34 + 3 y0_34 + 3 x0_35 - 1 y0_35 >= - 2
+ 2 x0_32 - 1 y0_32 - 1 x0_33 + 1 y0_33 + 0 x0_34 + 2 y0_34 + 1 x0_35 + 2 y0_35 >= 0
- 2 x0_32 + 7 y0_32 - 1 x0_33 + 4 y0_33 - 1 x0_34 + 5 y0_34 - 3 x0_35 + 6 y0_35 >= 0
+ 2 x0_32 - 3 y0_32 + 1 x0_33 - 2 y0_33 + 3 x0_34 - 3 y0_34 + 1 x0_35 - 3 y0_35 >= - 7
- 4 x0_32 + 3 y0_32 + 2 x0_33 + 1 y0_33 + 1 x0_34 + 5 y0_34 - 1 x0_35 + 4 y0_35 >= 0
+ 3 x0_32 + 3 y0_32 + 4 x0_33 + 1 y0_33 + 1 x0_34 + 3 y0_34 - 2 x0_35 - 2 y0_35 >= 0
+ 1 x0_32 - 1 y0_32 - 2 x0_33 - 1 y0_33 + 2 x0_34 - 2 y0_34 - 1 x0_35 + 1 y0_35 >= - 5
+ 4 x0_32 + 2 y0_32 - 1 x0_33 - 2 y0_33 + 3 x0_34 - 4 y0_34 + 1 x0_35 + 2 y0_35 >= - 3
+ 3 x0_32 + 1 y0_32 - 2 x0_33 + 4 y0_33 - 2 x0_34 + 1 y0_34 + 3 x0_35 + 3 y0_35 >= 0
- 3 x0_32 + 1 y0_32 + 1 x0_33 + 3 y0_33 - 4 x0_34 - 2 y0_34 - 4 x0_35 + 2 y0_35 >= - 9
- 3 x0_32 - 3 y0_32 + 1 x0_33 + 2 y0_33 - 3 x0_34 - 2 y0_34 + 1 x0_35 + 1 y0_35 >= - 8
+ 2 x0_32 - 1 y0_32 - 2 x0_33 + 1 y0_33 - 2 x0_34 - 2 y0_34 - 1 x0_35 - 1 y0_35 >= - 7
x0_36 + x0_37 + x0_38 + x0_39 - A0_2_1 >= 0
A0_2_1 - x0_36 >= 0
A0_2_1 - x0_37 >= 0
A0_2_1 - x0_38 >= 0
A0_2_1 - x0_39 >= 0
4 x0_36 + 4 x0_37 + 4 x0_38 + 4 x0_39 - y0_36 - y0_37 - y0_38 - y0_39 >= 0
4 y0_36 + 4 y0_37 + 4 y0_38 + 4 y0_39 - x0_36 - x0_37 - x0_38 - x0_39 >= 0
- 1 x0_36 + 1 y0_36 - 1 x0_37 - 2 y0_37 - 2 x0_38 - 2 y0_38 + 1 x0_39 - 1 y0_39 >= - 7
- 1 x0_36 - 2 y0_36 - 1 x0_37 + 2 y0_37 - 1 x0_38 - 2 y0_38 + 1 x0_39 + 1 y0_39 >= - 5
+ 2 x0_36 - 1 y0_36 - 2 x0_37 - 2 y0_37 - 2 x0_38 + 1 y0_38 - 1 x0_39 - 2 y0_39 >= - 8
- 1 x0_36 - 2 y0_36 + 1 x0_37 + 1 y0_37 - 2 x0_38 + 1 y0_38 - 2 x0_39 - 1 y0_39 >= - 6
- 1 x0_36 - 2 y0_36 - 1 x0_37 - 2 y0_37 - 1 x0_38 + 2 y0_38 + 2 x0_39 + 1 y0_39 >= - 5
- 1 x0_36 + 0 y0_36 - 1 x0_37 + 1 y0_37 + 0 x0_38 + 1 y0_38 + 0 x0_39 - 1 y0_39 >= - 2
- 2 x0_36 + 1 y0_36 - 2 x0_37 - 1 y0_37 + 2 x0_38 + 1 y0_38 - 1 x0_39 - 1 y0_39 >= - 5
+ 3 x0_36 - 2 y0_36 + 4 x0_37 + 1 y0_37 + 1 x0_38 + 1 y0_38 + 3 x0_39 - 2 y0_39 >= 0
+ 0 x0_36 + 2 y0_36 + 2 x0_37 + 2 y0_37 + 1 x0_38 - 1 y0_38 - 1 x0_39 - 2 y0_39 >= - 2
+ 2 x0_36 - 1 y0_36 + 2 x0_37 - 2 y0_37 - 2 x0_38 - 1 y0_38 - 1 x0_39 + 2 y0_39 >= - 5
+ 0 x0_36 + 1 y0_36 + 1 x0_37 + 1 y0_37 + 1 x0_38 - 1 y0_38 + 1 x0_39 + 0 y0_39 >= 0
- 2 x0_36 - 2 y0_36 + 3 x0_37 - 3 y0_37 + 3 x0_38 - 1 y0_38 - 1 x0_39 - 1 y0_39 >= - 7
- 1 x0_36 + 2 y0_36 + 1 x0_37 - 3 y0_37 + 2 x0_38 + 3 y0_38 + 3 x0_39 - 1 y0_39 >= - 2
+ 2 x0_36 - 1 y0_36 - 1 x0_37 + 1 y0_37 + 0 x0_38 + 2 y0_38 + 1 x0_39 + 2 y0_39 >= 0
- 2 x0_36 + 7 y0_36 - 1 x0_37 + 4 y0_37 - 1 x0_38 + 5 y0_38 - 3 x0_39 + 6 y0_39 >= 0
+ 2 x0_36 - 3 y0_36 + 1 x0_37 - 2 y0_37 + 3 x0_38 - 3 y0_38 + 1 x0_39 - 3 y0_39 >= - 7
- 4 x0_36 + 3 y0_36 + 2 x0_37 + 1 y0_37 + 1 x0_38 + 5 y0_38 - 1 x0_39 + 4 y0_39 >= 0
+ 3 x0_36 + 3 y0_36 + 4 x0_37 + 1 y0_37 + 1 x0_38 + 3 y0_38 - 2 x0_39 - 2 y0_39 >= 0
+ 1 x0_36 - 1 y0_36 - 2 x0_37 - 1 y0_37 + 2 x0_38 - 2 y0_38 - 1 x0_39 + 1 y0_39 >= - 5
+ 4 x0_36 + 2 y0_36 - 1 x0_37 - 2 y0_37 + 3 x0_38 - 4 y0_38 + 1 x0_39 + 2 y0_39 >= - 3
+ 3 x0_36 + 1 y0_36 - 2 x0_37 + 4 y0_37 - 2 x0_38 + 1 y0_38 + 3 x0_39 + 3 y0_39 >= 0
- 3 x0_36 + 1 y0_36 + 1 x0_37 + 3 y0_37 - 4 x0_38 - 2 y0_38 - 4 x0_39 + 2 y0_39 >= - 9
- 3 x0_36 - 3 y0_36 + 1 x0_37 + 2 y0_37 - 3 x0_38 - 2 y0_38 + 1 x0_39 + 1 y0_39 >= - 8
+ 2 x0_36 - 1 y0_36 - 2 x0_37 + 1 y0_37 - 2 x0_38 - 2 y0_38 - 1 x0_39 - 1 y0_39 >= - 7
x0_43 + y0_34 + x0_83 - 2 d0_2_1 = 0
x0_42 + y0_33 + x0_82 - 2 d0_2_2 = 0
x0_41 + y0_32 + x0_81 - 2 d0_2_3 = 0
x0_40 + y0_39 + x0_80 - 2 d0_2_4 = 0
x0_47 + y0_38 + x0_87 - 2 d0_2_5 = 0
x0_46 + y0_37 + x0_86 - 2 d0_2_6 = 0
x0_45 + y0_36 + x0_85 - 2 d0_2_7 = 0
x0_44 + y0_35 + x0_84 - 2 d0_2_8 = 0
x0_48 + x0_49 + x0_50 + x0_51 - A0_3_0 >= 0
A0_3_0 - x0_48 >= 0
A0_3_0 - x0_49 >= 0
A0_3_0 - x0_50 >= 0
A0_3_0 - x0_51 >= 0
4 x0_48 + 4 x0_49 + 4 x0_50 + 4 x0_51 - y0_48 - y0_49 - y0_50 - y0_51 >= 0
4 y0_48 + 4 y0_49 + 4 y0_50 + 4 y0_51 - x0_48 - x0_49 - x0_50 - x0_51 >= 0
- 1 x0_48 + 1 y0_48 - 1 x0_49 - 2 y0_49 - 2 x0_50 - 2 y0_50 + 1 x0_51 - 1 y0_51 >= - 7
- 1 x0_48 - 2 y0_48 - 1 x0_49 + 2 y0_49 - 1 x0_50 - 2 y0_50 + 1 x0_51 + 1 y0_51 >= - 5
+ 2 x0_48 - 1 y0_48 - 2 x0_49 - 2 y0_49 - 2 x0_50 + 1 y0_50 - 1 x0_51 - 2 y0_51 >= - 8
- 1 x0_48 - 2 y0_48 + 1 x0_49 + 1 y0_49 - 2 x0_50 + 1 y0_50 - 2 x0_51 - 1 y0_51 >= - 6
- 1 x0_48 - 2 y0_48 - 1 x0_49 - 2 y0_49 - 1 x0_50 + 2 y0_50 + 2 x0_51 + 1 y0_51 >= - 5
- 1 x0_48 + 0 y0_48 - 1 x0_49 + 1 y0_49 + 0 x0_50 + 1 y0_50 + 0 x0_51 - 1 y0_51 >= - 2
- 2 x0_48 + 1 y0_48 - 2 x0_49 - 1 y0_49 + 2 x0_50 + 1 y0_50 - 1 x0_51 - 1 y0_51 >= - 5
+ 3 x0_48 - 2 y0_48 + 4 x0_49 + 1 y0_49 + 1 x0_50 + 1 y0_50 + 3 x0_51 - 2 y0_51 >= 0
+ 0 x0_48 + 2 y0_48 + 2 x0_49 + 2 y0_49 + 1 x0_50 - 1 y0_50 - 1 x0_51 - 2 y0_51 >= - 2
+ 2 x0_48 - 1 y0_48 + 2 x0_49 - 2 y0_49 - 2 x0_50 - 1 y0_50 - 1 x0_51 + 2 y0_51 >= - 5
+ 0 x0_48 + 1 y0_48 + 1 x0_49 + 1 y0_49 + 1 x0_50 - 1 y0_50 + 1 x0_51 + 0 y0_51 >= 0
- 2 x0_48 - 2 y0_48 + 3 x0_49 - 3 y0_49 + 3 x0_50 - 1 y0_50 - 1 x0_51 - 1 y0_51 >= - 7
- 1 x0_48 + 2 y0_48 + 1 x0_49 - 3 y0_49 + 2 x0_50 + 3 y0_50 + 3 x0_51 - 1 y0_51 >= - 2
+ 2 x0_48 - 1 y0_48 - 1 x0_49 + 1 y0_49 + 0 x0_50 + 2 y0_50 + 1 x0_51 + 2 y0_51 >= 0
- 2 x0_48 + 7 y0_48 - 1 x0_49 + 4 y0_49 - 1 x0_50 + 5 y0_50 - 3 x0_51 + 6 y0_51 >= 0
+ 2 x0_48 - 3 y0_48 + 1 x0_49 - 2 y0_49 + 3 x0_50 - 3 y0_50 + 1 x0_51 - 3 y0_51 >= - 7
- 4 x0_48 + 3 y0_48 + 2 x0_49 + 1 y0_49 + 1 x0_50 + 5 y0_50 - 1 x0_51 + 4 y0_51 >= 0
+ 3 x0_48 + 3 y0_48 + 4 x0_49 + 1 y0_49 + 1 x0_50 + 3 y0_50 - 2 x0_51 - 2 y0_51 >= 0
+ 1 x0_48 - 1 y0_48 - 2 x0_49 - 1 y0_49 + 2 x0_50 - 2 y0_50 - 1 x0_51 + 1 y0_51 >= - 5
+ 4 x0_48 + 2 y0_48 - 1 x0_49 - 2 y0_49 + 3 x0_50 - 4 y0_50 + 1 x0_51 + 2 y0_51 >= - 3
+ 3 x0_48 + 1 y0_48 - 2 x0_49 + 4 y0_49 - 2 x0_50 + 1 y0_50 + 3 x0_51 + 3 y0_51 >= 0
- 3 x0_48 + 1 y0_48 + 1 x0_49 + 3 y0_49 - 4 x0_50 - 2 y0_50 - 4 x0_51 + 2 y0_51 >= - 9
- 3 x0_48 - 3 y0_48 + 1 x0_49 + 2 y0_49 - 3 x0_50 - 2 y0_50 + 1 x0_51 + 1 y0_51 >= - 8
+ 2 x0_48 - 1 y0_48 - 2 x0_49 + 1 y0_49 - 2 x0_50 - 2 y0_50 - 1 x0_51 - 1 y0_51 >= - 7
x0_52 + x0_53 + x0_54 + x0_55 - A0_3_1 >= 0
A0_3_1 - x0_52 >= 0
A0_3_1 - x0_53 >= 0
A0_3_1 - x0_54 >= 0
A0_3_1 - x0_55 >= 0
4 x0_52 + 4 x0_53 + 4 x0_54 + 4 x0_55 - y0_52 - y0_53 - y0_54 - y0_55 >= 0
4 y0_52 + 4 y0_53 + 4 y0_54 + 4 y0_55 - x0_52 - x0_53 - x0_54 - x0_55 >= 0
- 1 x0_52 + 1 y0_52 - 1 x0_53 - 2 y0_53 - 2 x0_54 - 2 y0_54 + 1 x0_55 - 1 y0_55 >= - 7
- 1 x0_52 - 2 y0_52 - 1 x0_53 + 2 y0_53 - 1 x0_54 - 2 y0_54 + 1 x0_55 + 1 y0_55 >= - 5
+ 2 x0_52 - 1 y0_52 - 2 x0_53 - 2 y0_53 - 2 x0_54 + 1 y0_54 - 1 x0_55 - 2 y0_55 >= - 8
- 1 x0_52 - 2 y0_52 + 1 x0_53 + 1 y0_53 - 2 x0_54 + 1 y0_54 - 2 x0_55 - 1 y0_55 >= - 6
- 1 x0_52 - 2 y0_52 - 1 x0_53 - 2 y0_53 - 1 x0_54 + 2 y0_54 + 2 x0_55 + 1 y0_55 >= - 5
- 1 x0_52 + 0 y0_52 - 1 x0_53 + 1 y0_53 + 0 x0_54 + 1 y0_54 + 0 x0_55 - 1 y0_55 >= - 2
- 2 x0_52 + 1 y0_52 - 2 x0_53 - 1 y0_53 + 2 x0_54 + 1 y0_54 - 1 x0_55 - 1 y0_55 >= - 5
+ 3 x0_52 - 2 y0_52 + 4 x0_53 + 1 y0_53 + 1 x0_54 + 1 y0_54 + 3 x0_55 - 2 y0_55 >= 0
+ 0 x0_52 + 2 y0_52 + 2 x0_53 + 2 y0_53 + 1 x0_54 - 1 y0_54 - 1 x0_55 - 2 y0_55 >= - 2
+ 2 x0_52 - 1 y0_52 + 2 x0_53 - 2 y0_53 - 2 x0_54 - 1 y0_54 - 1 x0_55 + 2 y0_55 >= - 5
+ 0 x0_52 + 1 y0_52 + 1 x0_53 + 1 y0_53 + 1 x0_54 - 1 y0_54 + 1 x0_55 + 0 y0_55 >= 0
- 2 x0_52 - 2 y0_52 + 3 x0_53 - 3 y0_53 + 3 x0_54 - 1 y0_54 - 1 x0_55 - 1 y0_55 >= - 7
- 1 x0_52 + 2 y0_52 + 1 x0_53 - 3 y0_53 + 2 x0_54 + 3 y0_54 + 3 x0_55 - 1 y0_55 >= - 2
+ 2 x0_52 - 1 y0_52 - 1 x0_53 + 1 y0_53 + 0 x0_54 + 2 y0_54 + 1 x0_55 + 2 y0_55 >= 0
- 2 x0_52 + 7 y0_52 - 1 x0_53 + 4 y0_53 - 1 x0_54 + 5 y0_54 - 3 x0_55 + 6 y0_55 >= 0
+ 2 x0_52 - 3 y0_52 + 1 x0_53 - 2 y0_53 + 3 x0_54 - 3 y0_54 + 1 x0_55 - 3 y0_55 >= - 7
- 4 x0_52 + 3 y0_52 + 2 x0_53 + 1 y0_53 + 1 x0_54 + 5 y0_54 - 1 x0_55 + 4 y0_55 >= 0
+ 3 x0_52 + 3 y0_52 + 4 x0_53 + 1 y0_53 + 1 x0_54 + 3 y0_54 - 2 x0_55 - 2 y0_55 >= 0
+ 1 x0_52 - 1 y0_52 - 2 x0_53 - 1 y0_53 + 2 x0_54 - 2 y0_54 - 1 x0_55 + 1 y0_55 >= - 5
+ 4 x0_52 + 2 y0_52 - 1 x0_53 - 2 y0_53 + 3 x0_54 - 4 y0_54 + 1 x0_55 + 2 y0_55 >= - 3
+ 3 x0_52 + 1 y0_52 - 2 x0_53 + 4 y0_53 - 2 x0_54 + 1 y0_54 + 3 x0_55 + 3 y0_55 >= 0
- 3 x0_52 + 1 y0_52 + 1 x0_53 + 3 y0_53 - 4 x0_54 - 2 y0_54 - 4 x0_55 + 2 y0_55 >= - 9
- 3 x0_52 - 3 y0_52 + 1 x0_53 + 2 y0_53 - 3 x0_54 - 2 y0_54 + 1 x0_55 + 1 y0_55 >= - 8
+ 2 x0_52 - 1 y0_52 - 2 x0_53 + 1 y0_53 - 2 x0_54 - 2 y0_54 - 1 x0_55 - 1 y0_55 >= - 7
x0_59 + y0_50 + x0_91 - 2 d0_3_1 = 0
x0_58 + y0_49 + x0_90 - 2 d0_3_2 = 0
x0_57 + y0_48 + x0_89 - 2 d0_3_3 = 0
x0_56 + y0_55 + x0_88 - 2 d0_3_4 = 0
x0_63 + y0_54 + x0_95 - 2 d0_3_5 = 0
x0_62 + y0_53 + x0_94 - 2 d0_3_6 = 0
x0_61 + y0_52 + x0_93 - 2 d0_3_7 = 0
x0_60 + y0_51 + x0_92 - 2 d0_3_8 = 0
x0_88 - x1_0 = 0
x0_89 - x1_1 = 0
x0_90 - x1_2 = 0
x0_91 - x1_3 = 0
x0_92 - x1_4 = 0
x0_93 - x1_5 = 0
x0_94 - x1_6 = 0
x0_95 - x1_7 = 0
x0_16 - x1_8 = 0
x0_17 - x1_9 = 0
x0_18 - x1_10 = 0
x0_19 - x1_11 = 0
x0_20 - x1_12 = 0
x0_21 - x1_13 = 0
x0_22 - x1_14 = 0
x0_23 - x1_15 = 0
x0_64 - x1_16 = 0
x0_65 - x1_17 = 0
x0_66 - x1_18 = 0
x0_67 - x1_19 = 0
x0_68 - x1_20 = 0
x0_69 - x1_21 = 0
x0_70 - x1_22 = 0
x0_71 - x1_23 = 0
x0_32 - x1_24 = 0
x0_33 - x1_25 = 0
x0_34 - x1_26 = 0
x0_35 - x1_27 = 0
x0_36 - x1_28 = 0
x0_37 - x1_29 = 0
x0_38 - x1_30 = 0
x0_39 - x1_31 = 0
x0_72 - x1_32 = 0
x0_73 - x1_33 = 0
x0_74 - x1_34 = 0
x0_75 - x1_35 = 0
x0_76 - x1_36 = 0
x0_77 - x1_37 = 0
x0_78 - x1_38 = 0
x0_79 - x1_39 = 0
x0_48 - x1_40 = 0
x0_49 - x1_41 = 0
x0_50 - x1_42 = 0
x0_51 - x1_43 = 0
x0_52 - x1_44 = 0
x0_53 - x1_45 = 0
x0_54 - x1_46 = 0
x0_55 - x1_47 = 0
x0_80 - x1_48 = 0
x0_81 - x1_49 = 0
x0_82 - x1_50 = 0
x0_83 - x1_51 = 0
x0_84 - x1_52 = 0
x0_85 - x1_53 = 0
x0_86 - x1_54 = 0
x0_87 - x1_55 = 0
x0_0 - x1_56 = 0
x0_1 - x1_57 = 0
x0_2 - x1_58 = 0
x0_3 - x1_59 = 0
x0_4 - x1_60 = 0
x0_5 - x1_61 = 0
x0_6 - x1_62 = 0
x0_7 - x1_63 = 0

Binary
A0_0_0 
A0_0_1 
A0_1_0 
A0_1_1 
A0_2_0 
A0_2_1 
A0_3_0 
A0_3_1 
d0_0_1 
d0_0_2 
d0_0_3 
d0_0_4 
d0_0_5 
d0_0_6 
d0_0_7 
d0_0_8 
d0_1_1 
d0_1_2 
d0_1_3 
d0_1_4 
d0_1_5 
d0_1_6 
d0_1_7 
d0_1_8 
d0_2_1 
d0_2_2 
d0_2_3 
d0_2_4 
d0_2_5 
d0_2_6 
d0_2_7 
d0_2_8 
d0_3_1 
d0_3_2 
d0_3_3 
d0_3_4 
d0_3_5 
d0_3_6 
d0_3_7 
d0_3_8 
x0_0 
x0_1 
x0_2 
x0_3 
x0_4 
x0_5 
x0_6 
x0_7 
x0_8 
x0_9 
x0_10 
x0_11 
x0_12 
x0_13 
x0_14 
x0_15 
x0_16 
x0_17 
x0_18 
x0_19 
x0_20 
x0_21 
x0_22 
x0_23 
x0_24 
x0_25 
x0_26 
x0_27 
x0_28 
x0_29 
x0_30 
x0_31 
x0_32 
x0_33 
x0_34 
x0_35 
x0_36 
x0_37 
x0_38 
x0_39 
x0_40 
x0_41 
x0_42 
x0_43 
x0_44 
x0_45 
x0_46 
x0_47 
x0_48 
x0_49 
x0_50 
x0_51 
x0_52 
x0_53 
x0_54 
x0_55 
x0_56 
x0_57 
x0_58 
x0_59 
x0_60 
x0_61 
x0_62 
x0_63 
x0_64 
x0_65 
x0_66 
x0_67 
x0_68 
x0_69 
x0_70 
x0_71 
x0_72 
x0_73 
x0_74 
x0_75 
x0_76 
x0_77 
x0_78 
x0_79 
x0_80 
x0_81 
x0_82 
x0_83 
x0_84 
x0_85 
x0_86 
x0_87 
x0_88 
x0_89 
x0_90 
x0_91 
x0_92 
x0_93 
x0_94 
x0_95 
x1_0 
x1_1 
x1_2 
x1_3 
x1_4 
x1_5 
x1_6 
x1_7 
x1_8 
x1_9 
x1_10 
x1_11 
x1_12 
x1_13 
x1_14 
x1_15 
x1_16 
x1_17 
x1_18 
x1_19 
x1_20 
x1_21 
x1_22 
x1_23 
x1_24 
x1_25 
x1_26 
x1_27 
x1_28 
x1_29 
x1_30 
x1_31 
x1_32 
x1_33 
x1_34 
x1_35 
x1_36 
x1_37 
x1_38 
x1_39 
x1_40 
x1_41 
x1_42 
x1_43 
x1_44 
x1_45 
x1_46 
x1_47 
x1_48 
x1_49 
x1_50 
x1_51 
x1_52 
x1_53 
x1_54 
x1_55 
x1_56 
x1_57 
x1_58 
x1_59 
x1_60 
x1_61 
x1_62 
x1_63 
y0_0 
y0_1 
y0_2 
y0_3 
y0_4 
y0_5 
y0_6 
y0_7 
y0_16 
y0_17 
y0_18 
y0_19 
y0_20 
y0_21 
y0_22 
y0_23 
y0_32 
y0_33 
y0_34 
y0_35 
y0_36 
y0_37 
y0_38 
y0_39 
y0_48 
y0_49 
y0_50 
y0_51 
y0_52 
y0_53 
y0_54 
y0_55 
End