ActiveSbox/r1.AS.lp.log

Gurobi 10.0.3 (win64) logging started Sat Nov  9 16:59:03 2024

Set parameter LogFile to value "r1.AS.lp.log"
Gurobi Optimizer version 10.0.3 build v10.0.3rc0 (win64)

CPU model: 12th Gen Intel(R) Core(TM) i5-1240P, instruction set [SSE2|AVX|AVX2]
Thread count: 12 physical cores, 16 logical processors, using up to 2 threads

Optimize a model with 345 rows, 232 columns and 2000 nonzeros
Model fingerprint: 0x4713367c
Variable types: 0 continuous, 232 integer (232 binary)
Coefficient statistics:
  Matrix range     [1e+00, 7e+00]
  Objective range  [1e+00, 1e+00]
  Bounds range     [1e+00, 1e+00]
  RHS range        [1e+00, 9e+00]
Presolve removed 104 rows and 160 columns
Presolve time: 0.01s
Presolved: 241 rows, 72 columns, 1704 nonzeros
Variable types: 0 continuous, 72 integer (72 binary)
Found heuristic solution: objective 8.0000000

Root relaxation: objective 2.500000e-01, 39 iterations, 0.00 seconds (0.00 work units)

    Nodes    |    Current Node    |     Objective Bounds      |     Work
 Expl Unexpl |  Obj  Depth IntInf | Incumbent    BestBd   Gap | It/Node Time

     0     0    0.25000    0    6    8.00000    0.25000  96.9%     -    0s
H    0     0                       1.0000000    0.25000  75.0%     -    0s
     0     0    0.25000    0    6    1.00000    0.25000  75.0%     -    0s

Explored 1 nodes (39 simplex iterations) in 0.01 seconds (0.01 work units)
Thread count was 2 (of 16 available processors)

Solution count 2: 1 8 

Optimal solution found (tolerance 1.00e-04)
Best objective 1.000000000000e+00, best bound 1.000000000000e+00, gap 0.0000%

Gurobi 10.0.3 (win64) logging started Sat Nov  9 17:11:57 2024

Set parameter LogFile to value "r1.AS.lp.log"
Gurobi Optimizer version 10.0.3 build v10.0.3rc0 (win64)

CPU model: 12th Gen Intel(R) Core(TM) i5-1240P, instruction set [SSE2|AVX|AVX2]
Thread count: 12 physical cores, 16 logical processors, using up to 2 threads

Optimize a model with 345 rows, 232 columns and 2032 nonzeros
Model fingerprint: 0x0c48da9b
Variable types: 0 continuous, 232 integer (232 binary)
Coefficient statistics:
  Matrix range     [1e+00, 7e+00]
  Objective range  [1e+00, 1e+00]
  Bounds range     [1e+00, 1e+00]
  RHS range        [1e+00, 9e+00]
Presolve removed 315 rows and 223 columns
Presolve time: 0.00s
Presolved: 30 rows, 9 columns, 209 nonzeros
Variable types: 0 continuous, 9 integer (9 binary)
Found heuristic solution: objective 8.0000000

Root relaxation: objective 0.000000e+00, 0 iterations, 0.00 seconds (0.00 work units)

    Nodes    |    Current Node    |     Objective Bounds      |     Work
 Expl Unexpl |  Obj  Depth IntInf | Incumbent    BestBd   Gap | It/Node Time

*    0     0               0       0.0000000    0.00000  0.00%     -    0s

Explored 1 nodes (0 simplex iterations) in 0.01 seconds (0.00 work units)
Thread count was 2 (of 16 available processors)

Solution count 2: 0 8 

Optimal solution found (tolerance 1.00e-04)
Best objective 0.000000000000e+00, best bound 0.000000000000e+00, gap 0.0000%
